(set-logic QF_SLIA)
(declare-fun var0 () String)
(assert (str.in_re var0 (re.++ ((_ re.loop 9 523) (re.++ (re.union (str.to_re "l9") (re.union (str.to_re "FpZ") (re.union (str.to_re "Pi") (str.to_re "d")))) (re.++ (re.union (str.to_re "](") (re.union (str.to_re "O]") (re.union (str.to_re "):E") (str.to_re "l")))) (re.++ (re.union (str.to_re "5") (re.union (str.to_re "IR") (re.union (str.to_re "f") (str.to_re "[")))) (re.union (str.to_re "j6") (re.union (str.to_re "Vt/") (re.union (str.to_re ".") (str.to_re "yXW")))))))) (re.++ ((_ re.loop 18 738) (re.++ (re.union (str.to_re "[P") (re.union (str.to_re "6xs") (re.union (str.to_re "Qs") (str.to_re "j")))) (re.++ (re.union (str.to_re "c") (re.union (str.to_re "@5") (re.union (str.to_re "=qY") (str.to_re "n")))) (re.++ (re.union (str.to_re "pD") (re.union (str.to_re "ZU") (re.union (str.to_re ":yX") (str.to_re ",-d")))) (re.union (str.to_re "rJ") (re.union (str.to_re "Dz") (re.union (str.to_re "t") (str.to_re "w")))))))) (re.++ ((_ re.loop 0 383) (re.++ (re.union (str.to_re "Li") (re.union (str.to_re "L3") (re.union (str.to_re "_p") (str.to_re "W$R")))) (re.++ (re.union (str.to_re "Az4") (re.union (str.to_re "b") (re.union (str.to_re "b!d") (str.to_re ">")))) (re.++ (re.union (str.to_re "[&") (re.union (str.to_re "E%u") (re.union (str.to_re "Y0") (str.to_re "t")))) (re.union (str.to_re ";") (re.union (str.to_re "X") (re.union (str.to_re "(") (str.to_re "0")))))))) ((_ re.loop 0 694) (re.++ (re.union (str.to_re "5?[") (re.union (str.to_re "!f?") (re.union (str.to_re "TLH") (str.to_re "~Cu")))) (re.++ (re.union (str.to_re "#]Y") (re.union (str.to_re "Q!") (re.union (str.to_re "ZE") (str.to_re "qOH")))) (re.++ (re.union (str.to_re "5S") (re.union (str.to_re "\u0022") (re.union (str.to_re "p") (str.to_re "w$")))) (re.union (str.to_re "b") (re.union (str.to_re "?9d") (re.union (str.to_re "B") (str.to_re "n")))))))))))))
(assert (not (str.in_re var0 (re.++ ((_ re.loop 18 219) (re.++ (re.union (str.to_re "`") (re.union (str.to_re "_R") (re.union (str.to_re "2CL") (str.to_re "k")))) (re.++ (re.union (str.to_re "J^g") (re.union (str.to_re "#%I") (re.union (str.to_re "uG") (str.to_re "S#x")))) (re.++ (re.union (str.to_re "$") (re.union (str.to_re "u") (re.union (str.to_re "r") (str.to_re "k")))) (re.union (str.to_re ":W") (re.union (str.to_re "H4U") (re.union (str.to_re "(") (str.to_re ")~")))))))) (re.++ ((_ re.loop 17 127) (re.++ (re.union (str.to_re "qlu") (re.union (str.to_re ":\\") (re.union (str.to_re "8") (str.to_re "$%")))) (re.++ (re.union (str.to_re "tv") (re.union (str.to_re "f:/") (re.union (str.to_re "_B5") (str.to_re "8<+")))) (re.++ (re.union (str.to_re "t(") (re.union (str.to_re "{") (re.union (str.to_re "L-!") (str.to_re "rL")))) (re.union (str.to_re "g") (re.union (str.to_re "-z#") (re.union (str.to_re "UH'") (str.to_re "yKW")))))))) (re.++ ((_ re.loop 1 259) (re.++ (re.union (str.to_re ",n") (re.union (str.to_re "g") (re.union (str.to_re "2") (str.to_re "VY")))) (re.++ (re.union (str.to_re "v!") (re.union (str.to_re "Y") (re.union (str.to_re "<6y") (str.to_re "M")))) (re.++ (re.union (str.to_re "A~") (re.union (str.to_re "W2") (re.union (str.to_re "+") (str.to_re "T")))) (re.union (str.to_re "Bi") (re.union (str.to_re "xB=") (re.union (str.to_re "iQA") (str.to_re "}")))))))) ((_ re.loop 7 992) (re.++ (re.union (str.to_re "w") (re.union (str.to_re "@&;") (re.union (str.to_re "uz") (str.to_re "3")))) (re.++ (re.union (str.to_re "Z/f") (re.union (str.to_re "f3") (re.union (str.to_re "h]7") (str.to_re "vI")))) (re.++ (re.union (str.to_re "g<") (re.union (str.to_re "rqG") (re.union (str.to_re ";ZG") (str.to_re "\u0022N")))) (re.union (str.to_re "h?") (re.union (str.to_re "EsP") (re.union (str.to_re "}4V") (str.to_re "+"))))))))))))))
(assert (not (str.in_re var0 (re.++ (re.* re.allchar) (re.++ (re.union (str.to_re "<") (re.union (str.to_re ">") (re.union (str.to_re "'") (re.union (str.to_re "\u0022") (str.to_re "&"))))) (re.* re.allchar))))))
(assert (<= 50 (str.len var0)))
(check-sat)
(get-model)
